\ENCODING=ISO-8859-1
\Problem name: bass99_599

Minimize
 obj: 4 x1 + 2 x2 + 0.2 x3 + 0.2 x4 + 10 x5 + 10 x6 - 8 x7 - 4 x8 - 4 x9
Subject To
 c_e_x11_:             - x1 + x3 + x7 + x8  = 0
 c_e_x12_:             - x2 + x4 + x9  = 0
 c_e_x13_:             x5 + x7  = 17.75731865
 c_e_x14_:             x6 + x8 + x9  = 102.63122844408
 c_e_ONE_VAR_CONSTANT: ONE_VAR_CONSTANT  = 1
Bounds
 0 <= x1 <= 217
 0 <= x2 <= 217
End
